(define-sort Feature () Bool)
(declare-const G Feature)
(declare-const A Feature)
(declare-const M Feature)
(declare-const L Feature)
(declare-const C Feature)
(declare-const R Feature)
(declare-const B Feature)
(declare-const N Feature)
(declare-const W Feature)
(declare-const V Feature)
(declare-const Y Feature)
(declare-const P Feature)
(declare-const S Feature)

(assert G)
(assert (and
   (= A G)
   (= M A)
   (= L A)
   (= C G)
   (= R G)
   (= (or B  N  W ) R)
   (not (and B N))
   (not (and B W))
   (not (and N W))
   (= V G)
   (= Y V)
   (= P V)
   (=> S V)
))

(push)
(assert (and 
    (and G N N)
    (and G W W)
))
(check-sat)
(pop)
(push)
(assert (and 
    (and G N N)
    (and G B B)
))
(check-sat)
(pop)
(push)
(assert (and 
    (and G W W)
    (and G B B)
))
(check-sat)
(pop)
(push)
(assert (and 
    (and G W P)
    (and G (not W) G)
))
(check-sat)
(pop)
(push)
(assert (and 
    (and G (or S (not W)) G)
    (and G (and W (not S)) G)
))
(check-sat)
(pop)
(push)
(assert (and 
    (and N S P)
    (and N (not S) N)
))
(check-sat)
(pop)
(push)
(assert (and 
    (and W S P)
    (and W (not S) W)
))
(check-sat)
(pop)
(push)
(assert (and 
    (and W S S)
    (and W (not S) W)
))
(check-sat)
(pop)
(push)
(assert (and 
    (and B S P)
    (and B (not S) B)
))
(check-sat)
(pop)
(push)
(assert (and 
    (and P B S)
    (and P N S)
))
(check-sat)
(pop)
(push)
(assert (and 
    (and P B S)
    (and P (or W (not S)) P)
))
(check-sat)
(pop)
(push)
(assert (and 
    (and P N S)
    (and P (or W (not S)) P)
))
(check-sat)
(pop)
(push)
(assert (and 
    (and P N N)
    (and P W W)
))
(check-sat)
(pop)
(push)
(assert (and 
    (and P N N)
    (and P B B)
))
(check-sat)
(pop)
(push)
(assert (and 
    (and P W W)
    (and P B B)
))
(check-sat)
(pop)
(push)
(assert (and 
    (and S N N)
    (and S W W)
))
(check-sat)
(pop)
(push)
(assert (and 
    (and S N N)
    (and S B B)
))
(check-sat)
(pop)
(push)
(assert (and 
    (and S W W)
    (and S B B)
))
(check-sat)
(pop)
(push)
(assert (and 
    (and S W S)
    (and S (not W) S)
))
(check-sat)
(pop)
